NAME          COPTPROB
OBJSENSE
  MIN
ROWS
 N  __OBJ___
 L  C0      
 L  C2      
 L  C3      
 L  C5      
 L  C6      
 L  C8      
 L  C9      
 L  C11     
 L  C12     
 L  C13     
 L  C14     
 L  C17     
 L  C21     
 L  C23     
 L  C24     
 L  C25     
 L  C26     
 L  C27     
 L  C29     
 L  C30     
 L  C33     
 L  C34     
 L  C35     
 L  C38     
 L  C39     
 L  C40     
 L  C41     
 L  C42     
 L  C46     
 L  C48     
 L  C49     
 L  C50     
 L  C52     
 L  C53     
 L  C54     
 L  C56     
 L  C58     
 L  C60     
 L  C62     
 L  C65     
 L  C68     
 L  C69     
 L  C70     
 L  C71     
 L  C74     
 L  C76     
 L  C77     
 L  C78     
 L  C79     
 L  C80     
 L  C81     
 L  C83     
 L  C86     
 L  C87     
 L  C89     
 L  C91     
 L  C92     
 L  C93     
 L  C95     
 L  C96     
 L  C101    
 L  C102    
 L  C104    
 L  C107    
 L  C110    
 L  C111    
 L  C115    
 L  C120    
 L  C124    
 L  C127    
 L  C129    
 L  C132    
 L  C135    
 L  C138    
 L  C140    
 L  C141    
 L  C143    
 L  C144    
 L  C145    
 L  C146    
 L  C150    
 L  C152    
 L  C154    
 L  C158    
 L  C159    
 L  C160    
 L  C161    
 L  C170    
 L  C175    
 L  C176    
 L  C178    
 L  C179    
 L  C180    
 L  C182    
 L  C183    
 L  C186    
 L  C187    
 L  C188    
 L  C191    
 L  C193    
 L  C194    
 L  C195    
 L  C198    
 L  C199    
 L  C200    
 L  C201    
 L  C202    
 L  C203    
 L  C205    
 L  C206    
 L  C207    
 L  C212    
 L  C213    
 L  C214    
 L  C215    
 L  C216    
 L  C218    
 L  C220    
 L  C221    
 L  C222    
 L  C224    
 L  C225    
 L  C226    
 L  C227    
 L  C234    
 L  C235    
 L  C237    
 L  C238    
 L  C240    
 L  C241    
 L  C244    
 L  C245    
 L  C248    
 L  C249    
 L  C250    
 L  C251    
 L  C255    
 L  C257    
 L  C263    
 L  C264    
 L  C267    
 L  C268    
 L  C269    
 L  C270    
 L  C271    
 L  C272    
 L  C273    
 L  C275    
 L  C277    
 L  C279    
 L  C281    
 L  C282    
 L  C283    
 L  C284    
 L  C285    
 L  C286    
 L  C289    
 L  C291    
 L  C292    
 L  C293    
 L  C294    
 L  C295    
 L  C299    
 L  C301    
 L  C303    
 L  C306    
 L  C307    
 L  C311    
 L  C315    
 L  C317    
 L  C319    
 L  C322    
 L  C323    
 L  C328    
 L  C329    
 L  C333    
 L  C338    
 L  C340    
 L  C341    
 L  C345    
 L  C347    
 L  C348    
 L  C352    
 L  C356    
 L  C357    
 L  C358    
 L  C359    
 L  C360    
 L  C361    
 L  C363    
 L  C366    
 L  C368    
 L  C369    
 L  C370    
 L  C371    
 L  C374    
 L  C377    
 L  C379    
 L  C380    
 L  C381    
 L  C385    
 L  C387    
 L  C389    
 L  C390    
 L  C391    
 L  C395    
 L  C397    
 L  C399    
COLUMNS
    MARKER    'MARKER'                 'INTORG'
    x2        __OBJ___  149
    x2        C161      -1
    x2        C267      -1
    x2        C377      -1
    x2        C399      -1
    x6        __OBJ___  512
    x6        C69       -1
    x6        C183      -1
    x6        C191      -1
    x6        C268      -1
    x7        __OBJ___  878
    x7        C222      -1
    x7        C264      -1
    x7        C347      -1
    x7        C361      -1
    x8        __OBJ___  370
    x8        C42       -1
    x8        C79       -1
    x8        C110      -1
    x9        __OBJ___  243
    x9        C6        -1
    x9        C54       -1
    x9        C135      -1
    x9        C269      -1
    x9        C293      -1
    x10       __OBJ___  850
    x10       C25       -1
    x10       C56       -1
    x10       C70       -1
    x10       C144      -1
    x10       C154      -1
    x10       C159      -1
    x10       C220      -1
    x10       C237      -1
    x12       __OBJ___  272
    x12       C60       -1
    x12       C143      -1
    x12       C203      -1
    x12       C221      -1
    x12       C279      -1
    x12       C328      -1
    x14       __OBJ___  376
    x14       C17       -1
    x14       C41       -1
    x14       C193      -1
    x19       __OBJ___  53
    x19       C11       -1
    x19       C244      -1
    x19       C248      -1
    x19       C250      -1
    x19       C311      -1
    x27       __OBJ___  370
    x27       C48       -1
    x27       C214      -1
    x27       C345      -1
    x29       __OBJ___  500
    x29       C8        -1
    x29       C283      -1
    x29       C301      -1
    x29       C338      -1
    x31       __OBJ___  614
    x31       C3        -1
    x31       C160      -1
    x31       C187      -1
    x31       C212      -1
    x31       C275      -1
    x31       C357      -1
    x34       __OBJ___  954
    x34       C5        -1
    x34       C9        -1
    x34       C34       -1
    x34       C284      -1
    x36       __OBJ___  650
    x36       C38       -1
    x36       C129      -1
    x36       C146      -1
    x36       C194      -1
    x36       C380      -1
    x38       __OBJ___  439
    x38       C176      -1
    x38       C273      -1
    x38       C303      -1
    x38       C366      -1
    x40       __OBJ___  896
    x40       C78       -1
    x40       C195      -1
    x40       C285      -1
    x42       __OBJ___  467
    x42       C21       -1
    x42       C29       -1
    x42       C77       -1
    x42       C140      -1
    x42       C150      -1
    x44       __OBJ___  466
    x44       C81       -1
    x44       C158      -1
    x44       C207      -1
    x44       C323      -1
    x45       __OBJ___  885
    x45       C80       -1
    x45       C120      -1
    x45       C234      -1
    x45       C272      -1
    x45       C341      -1
    x46       __OBJ___  154
    x46       C227      -1
    x46       C241      -1
    x46       C360      -1
    x47       __OBJ___  161
    x47       C49       -1
    x47       C202      -1
    x47       C381      -1
    x48       __OBJ___  699
    x48       C40       -1
    x48       C65       -1
    x48       C238      -1
    x48       C299      -1
    x51       __OBJ___  413
    x51       C132      -1
    x51       C200      -1
    x51       C225      -1
    x51       C292      -1
    x52       __OBJ___  504
    x52       C35       -1
    x52       C178      -1
    x54       __OBJ___  880
    x54       C2        -1
    x54       C14       -1
    x54       C26       -1
    x54       C87       -1
    x54       C270      -1
    x54       C286      -1
    x54       C317      -1
    x56       __OBJ___  166
    x56       C30       -1
    x56       C95       -1
    x56       C127      -1
    x58       __OBJ___  290
    x58       C199      -1
    x58       C249      -1
    x58       C282      -1
    x59       __OBJ___  936
    x59       C68       -1
    x59       C124      -1
    x59       C182      -1
    x59       C215      -1
    x59       C271      -1
    x60       __OBJ___  536
    x60       C245      -1
    x60       C291      -1
    x60       C370      -1
    x62       __OBJ___  460
    x62       C62       -1
    x62       C102      -1
    x62       C107      -1
    x62       C218      -1
    x62       C385      -1
    x63       __OBJ___  534
    x63       C175      -1
    x63       C322      -1
    x64       __OBJ___  342
    x64       C71       -1
    x64       C289      -1
    x64       C387      -1
    x68       __OBJ___  523
    x68       C52       -1
    x68       C206      -1
    x68       C255      -1
    x68       C306      -1
    x68       C374      -1
    x70       __OBJ___  13
    x70       C186      -1
    x70       C201      -1
    x70       C295      -1
    x71       __OBJ___  473
    x71       C170      -1
    x71       C213      -1
    x71       C315      -1
    x71       C356      -1
    x72       __OBJ___  565
    x72       C0        -1
    x72       C111      -1
    x72       C371      -1
    x72       C390      -1
    x73       __OBJ___  828
    x73       C24       -1
    x73       C104      -1
    x73       C180      -1
    x73       C277      -1
    x74       __OBJ___  929
    x74       C76       -1
    x74       C188      -1
    x74       C340      -1
    x74       C352      -1
    x74       C363      -1
    x77       __OBJ___  234
    x77       C58       -1
    x77       C368      -1
    x79       __OBJ___  938
    x79       C50       -1
    x79       C235      -1
    x79       C358      -1
    x80       __OBJ___  384
    x80       C216      -1
    x80       C251      -1
    x80       C307      -1
    x81       __OBJ___  299
    x81       C89       -1
    x81       C395      -1
    x83       __OBJ___  87
    x83       C145      -1
    x83       C179      -1
    x83       C240      -1
    x83       C263      -1
    x84       __OBJ___  844
    x84       C13       -1
    x84       C86       -1
    x84       C141      -1
    x84       C391      -1
    x84       C397      -1
    x85       __OBJ___  877
    x85       C96       -1
    x85       C198      -1
    x85       C389      -1
    x89       __OBJ___  319
    x89       C46       -1
    x89       C53       -1
    x89       C101      -1
    x89       C224      -1
    x91       __OBJ___  111
    x91       C83       -1
    x91       C93       -1
    x93       __OBJ___  1
    x93       C74       -1
    x93       C257      -1
    x95       __OBJ___  175
    x95       C81       -1
    x95       C251      -1
    x96       __OBJ___  239
    x96       C144      -1
    x96       C213      -1
    x99       __OBJ___  578
    x99       C24       -1
    x99       C390      -1
    x100      __OBJ___  287
    x100      C3        -1
    x100      C70       -1
    x100      C178      -1
    x100      C341      -1
    x101      __OBJ___  87
    x101      C24       -1
    x101      C328      -1
    x102      __OBJ___  638
    x102      C23       -1
    x102      C56       -1
    x102      C127      -1
    x103      __OBJ___  163
    x103      C183      -1
    x103      C227      -1
    x104      __OBJ___  415
    x104      C138      -1
    x104      C176      -1
    x115      __OBJ___  306
    x115      C42       -1
    x115      C240      -1
    x115      C370      -1
    x116      __OBJ___  144
    x116      C13       -1
    x116      C214      -1
    x116      C285      -1
    x117      __OBJ___  271
    x117      C9        -1
    x117      C191      -1
    x118      __OBJ___  653
    x118      C25       -1
    x118      C170      -1
    x118      C319      -1
    x118      C391      -1
    x119      __OBJ___  17
    x119      C14       -1
    x119      C38       -1
    x119      C115      -1
    x119      C200      -1
    x119      C272      -1
    x121      __OBJ___  332
    x121      C13       -1
    x121      C60       -1
    x121      C146      -1
    x121      C180      -1
    x121      C245      -1
    x124      __OBJ___  310
    x124      C270      -1
    x126      __OBJ___  135
    x126      C71       -1
    x126      C115      -1
    x126      C143      -1
    x126      C387      -1
    x128      __OBJ___  414
    x128      C54       -1
    x128      C101      -1
    x128      C399      -1
    x132      __OBJ___  158
    x132      C268      -1
    x132      C319      -1
    x133      __OBJ___  175
    x133      C348      -1
    x134      __OBJ___  327
    x134      C71       -1
    x134      C101      -1
    x134      C221      -1
    x142      __OBJ___  501
    x142      C8        -1
    x142      C34       -1
    x144      __OBJ___  32
    x144      C152      -1
    x144      C198      -1
    x145      __OBJ___  254
    x145      C146      -1
    x145      C268      -1
    x149      __OBJ___  381
    x149      C284      -1
    x149      C399      -1
    x151      __OBJ___  981
    x151      C120      -1
    x151      C281      -1
    x151      C289      -1
    x151      C293      -1
    x156      __OBJ___  638
    x156      C161      -1
    x156      C194      -1
    x158      __OBJ___  358
    x158      C42       -1
    x158      C102      -1
    x159      __OBJ___  391
    x159      C158      -1
    x160      __OBJ___  737
    x160      C135      -1
    x160      C277      -1
    x162      __OBJ___  883
    x162      C132      -1
    x162      C195      -1
    x162      C370      -1
    x164      __OBJ___  281
    x164      C87       -1
    x164      C294      -1
    x165      __OBJ___  70
    x165      C241      -1
    x169      __OBJ___  938
    x169      C358      -1
    x169      C377      -1
    x170      __OBJ___  541
    x170      C87       -1
    x170      C154      -1
    x170      C175      -1
    x171      __OBJ___  251
    x171      C124      -1
    x171      C385      -1
    x171      C397      -1
    x172      __OBJ___  736
    x172      C248      -1
    x172      C282      -1
    x172      C292      -1
    x172      C395      -1
    x174      __OBJ___  638
    x174      C161      -1
    x174      C234      -1
    x174      C357      -1
    x176      __OBJ___  441
    x176      C26       -1
    x176      C145      -1
    x176      C158      -1
    x176      C329      -1
    x178      __OBJ___  90
    x178      C74       -1
    x178      C91       -1
    x178      C187      -1
    x184      __OBJ___  144
    x184      C50       -1
    x184      C129      -1
    x184      C182      -1
    x184      C285      -1
    x186      __OBJ___  147
    x186      C222      -1
    x186      C226      -1
    x186      C275      -1
    x186      C360      -1
    x190      __OBJ___  746
    x190      C39       -1
    x190      C132      -1
    x192      __OBJ___  792
    x192      C6        -1
    x192      C24       -1
    x192      C76       -1
    x192      C191      -1
    x192      C348      -1
    x194      __OBJ___  810
    x194      C154      -1
    x194      C241      -1
    x194      C284      -1
    x194      C315      -1
    x195      __OBJ___  59
    x195      C187      -1
    x195      C235      -1
    x198      __OBJ___  885
    x198      C150      -1
    x198      C202      -1
    x198      C389      -1
    x199      __OBJ___  784
    x199      C92       -1
    x199      C180      -1
    x199      C237      -1
    x199      C272      -1
    x199      C370      -1
    x202      __OBJ___  341
    x202      C5        -1
    x202      C214      -1
    x205      __OBJ___  903
    x205      C65       -1
    x205      C191      -1
    x205      C194      -1
    x205      C205      -1
    x205      C279      -1
    x205      C395      -1
    x207      __OBJ___  86
    x207      C40       -1
    x207      C74       -1
    x207      C244      -1
    x209      __OBJ___  802
    x209      C26       -1
    x209      C60       -1
    x209      C150      -1
    x209      C206      -1
    x209      C395      -1
    x210      __OBJ___  42
    x210      C78       -1
    x210      C306      -1
    x210      C363      -1
    x217      __OBJ___  358
    x217      C284      -1
    x217      C391      -1
    x219      __OBJ___  258
    x219      C104      -1
    x219      C132      -1
    x219      C220      -1
    x220      __OBJ___  180
    x220      C140      -1
    x220      C205      -1
    x220      C369      -1
    x224      __OBJ___  399
    x224      C50       -1
    x224      C69       -1
    x224      C269      -1
    x224      C286      -1
    x224      C307      -1
    x224      C381      -1
    x235      __OBJ___  816
    x235      C175      -1
    x235      C224      -1
    x235      C244      -1
    x236      __OBJ___  705
    x236      C54       -1
    x236      C87       -1
    x236      C179      -1
    x236      C203      -1
    x236      C225      -1
    x236      C390      -1
    x237      __OBJ___  275
    x237      C183      -1
    x237      C356      -1
    x237      C368      -1
    x238      __OBJ___  824
    x238      C0        -1
    x238      C49       -1
    x238      C268      -1
    x238      C352      -1
    x239      __OBJ___  161
    x239      C11       -1
    x239      C60       -1
    x239      C183      -1
    x239      C289      -1
    x239      C307      -1
    x240      __OBJ___  533
    x240      C206      -1
    x240      C250      -1
    x241      __OBJ___  73
    x241      C87       -1
    x245      __OBJ___  316
    x245      C89       -1
    x245      C154      -1
    x246      __OBJ___  289
    x246      C33       -1
    x246      C96       -1
    x246      C102      -1
    x248      __OBJ___  122
    x248      C212      -1
    x248      C359      -1
    x248      C387      -1
    x250      __OBJ___  376
    x250      C159      -1
    x250      C234      -1
    x250      C323      -1
    x251      __OBJ___  233
    x251      C146      -1
    x251      C397      -1
    x253      __OBJ___  185
    x253      C40       -1
    x253      C143      -1
    x259      __OBJ___  383
    x259      C226      -1
    x259      C255      -1
    x259      C291      -1
    x261      __OBJ___  621
    x261      C83       -1
    x261      C205      -1
    x261      C299      -1
    x261      C341      -1
    x263      __OBJ___  113
    x263      C76       -1
    x263      C182      -1
    x263      C238      -1
    x264      __OBJ___  595
    x264      C224      -1
    x264      C345      -1
    x267      __OBJ___  185
    x267      C86       -1
    x267      C111      -1
    x267      C348      -1
    x267      C368      -1
    x269      __OBJ___  327
    x269      C14       -1
    x269      C53       -1
    x269      C207      -1
    x270      __OBJ___  551
    x270      C46       -1
    x270      C62       -1
    x270      C347      -1
    x272      __OBJ___  399
    x272      C25       -1
    x272      C30       -1
    x272      C249      -1
    x272      C301      -1
    x274      __OBJ___  832
    x274      C26       -1
    x274      C281      -1
    x274      C359      -1
    x275      __OBJ___  348
    x275      C13       -1
    x275      C27       -1
    x275      C91       -1
    x275      C216      -1
    x275      C222      -1
    x275      C333      -1
    x276      __OBJ___  62
    x276      C86       -1
    x276      C203      -1
    x276      C205      -1
    x279      __OBJ___  631
    x279      C76       -1
    x279      C154      -1
    x279      C299      -1
    x281      __OBJ___  97
    x281      C53       -1
    x281      C161      -1
    x281      C186      -1
    x282      __OBJ___  689
    x282      C183      -1
    x282      C273      -1
    x282      C357      -1
    x283      __OBJ___  554
    x283      C270      -1
    x283      C279      -1
    x285      __OBJ___  592
    x285      C17       -1
    x285      C58       -1
    x285      C146      -1
    x285      C186      -1
    x285      C200      -1
    x285      C271      -1
    x285      C370      -1
    x286      __OBJ___  581
    x286      C69       -1
    x286      C215      -1
    x286      C283      -1
    x289      __OBJ___  114
    x289      C92       -1
    x293      __OBJ___  181
    x293      C49       -1
    x293      C144      -1
    x293      C145      -1
    x293      C317      -1
    x293      C371      -1
    x295      __OBJ___  741
    x295      C41       -1
    x295      C203      -1
    x295      C221      -1
    x295      C267      -1
    x296      __OBJ___  274
    x296      C53       -1
    x296      C178      -1
    x296      C291      -1
    x297      __OBJ___  457
    x297      C27       -1
    x297      C249      -1
    x297      C294      -1
    x298      __OBJ___  902
    x298      C135      -1
    x298      C194      -1
    x298      C248      -1
    x299      __OBJ___  950
    x299      C271      -1
    x299      C333      -1
    x299      C385      -1
    x300      __OBJ___  953
    x300      C27       -1
    x300      C160      -1
    x300      C227      -1
    x303      __OBJ___  340
    x303      C40       -1
    x303      C140      -1
    x303      C322      -1
    x305      __OBJ___  489
    x305      C39       -1
    x305      C78       -1
    x305      C92       -1
    x305      C158      -1
    x307      __OBJ___  573
    x307      C0        -1
    x307      C27       -1
    x307      C62       -1
    x307      C241      -1
    x307      C340      -1
    x308      __OBJ___  675
    x308      C54       -1
    x308      C154      -1
    x308      C158      -1
    x309      __OBJ___  402
    x309      C60       -1
    x309      C154      -1
    x310      __OBJ___  128
    x310      C213      -1
    x310      C222      -1
    x310      C307      -1
    x310      C329      -1
    x310      C366      -1
    x311      __OBJ___  115
    x311      C220      -1
    x311      C235      -1
    x311      C340      -1
    x312      __OBJ___  860
    x312      C77       -1
    x312      C79       -1
    x312      C255      -1
    x312      C357      -1
    x312      C381      -1
    x314      __OBJ___  575
    x314      C69       -1
    x314      C96       -1
    x315      __OBJ___  317
    x315      C220      -1
    x315      C283      -1
    x316      __OBJ___  743
    x316      C25       -1
    x316      C132      -1
    x316      C255      -1
    x316      C299      -1
    x318      __OBJ___  287
    x318      C23       -1
    x318      C78       -1
    x318      C369      -1
    x319      __OBJ___  426
    x319      C29       -1
    x319      C141      -1
    x319      C199      -1
    x319      C380      -1
    x321      __OBJ___  937
    x321      C42       -1
    x321      C152      -1
    x321      C275      -1
    x321      C381      -1
    x321      C390      -1
    x323      __OBJ___  701
    x323      C207      -1
    x323      C214      -1
    x323      C279      -1
    x324      __OBJ___  885
    x324      C95       -1
    x324      C359      -1
    x324      C361      -1
    x325      __OBJ___  80
    x325      C48       -1
    x325      C319      -1
    x327      __OBJ___  152
    x327      C12       -1
    x327      C368      -1
    x328      __OBJ___  699
    x328      C2        -1
    x328      C138      -1
    x328      C295      -1
    x329      __OBJ___  459
    x329      C3        -1
    x329      C12       -1
    x329      C30       -1
    x329      C160      -1
    x329      C370      -1
    x330      __OBJ___  253
    x330      C52       -1
    x330      C257      -1
    x330      C272      -1
    x331      __OBJ___  122
    x331      C17       -1
    x331      C338      -1
    x333      __OBJ___  769
    x333      C107      -1
    x333      C206      -1
    x334      __OBJ___  78
    x334      C76       -1
    x335      __OBJ___  693
    x335      C27       -1
    x335      C54       -1
    x335      C68       -1
    x335      C187      -1
    x336      __OBJ___  529
    x336      C352      -1
    x337      __OBJ___  753
    x337      C188      -1
    x337      C299      -1
    x338      __OBJ___  610
    x338      C13       -1
    x338      C38       -1
    x338      C206      -1
    x338      C218      -1
    x339      __OBJ___  385
    x339      C11       -1
    x339      C267      -1
    x339      C315      -1
    x339      C322      -1
    x345      __OBJ___  132
    x345      C0        -1
    x345      C29       -1
    x345      C34       -1
    x345      C87       -1
    x346      __OBJ___  130
    x346      C186      -1
    x346      C200      -1
    x346      C303      -1
    x346      C363      -1
    x346      C395      -1
    x350      __OBJ___  279
    x350      C24       -1
    x350      C282      -1
    x350      C307      -1
    x354      __OBJ___  289
    x354      C214      -1
    x354      C264      -1
    x354      C379      -1
    x355      __OBJ___  683
    x355      C33       -1
    x355      C352      -1
    x355      C397      -1
    x356      __OBJ___  511
    x356      C9        -1
    x356      C38       -1
    x356      C54       -1
    x356      C244      -1
    x357      __OBJ___  914
    x357      C9        -1
    x357      C93       -1
    x357      C150      -1
    x357      C227      -1
    x358      __OBJ___  958
    x358      C9        -1
    x358      C58       -1
    x358      C83       -1
    x358      C345      -1
    x362      __OBJ___  517
    x362      C161      -1
    x362      C198      -1
    x362      C371      -1
    x362      C379      -1
    x363      __OBJ___  68
    x363      C65       -1
    x363      C80       -1
    x363      C161      -1
    x363      C286      -1
    x363      C374      -1
    x365      __OBJ___  420
    x365      C111      -1
    x365      C132      -1
    x365      C143      -1
    x365      C199      -1
    x365      C212      -1
    x373      __OBJ___  317
    x373      C17       -1
    x373      C25       -1
    x373      C371      -1
    x376      __OBJ___  334
    x376      C193      -1
    x376      C201      -1
    x377      __OBJ___  115
    x377      C62       -1
    x377      C267      -1
    x377      C329      -1
    x378      __OBJ___  198
    x378      C70       -1
    x378      C311      -1
    x378      C359      -1
    x378      C395      -1
    x381      __OBJ___  787
    x381      C79       -1
    x381      C195      -1
    x381      C224      -1
    x381      C317      -1
    x382      __OBJ___  91
    x382      C141      -1
    x383      __OBJ___  141
    x383      C263      -1
    x383      C269      -1
    x384      __OBJ___  884
    x384      C110      -1
    x384      C159      -1
    x384      C291      -1
    x384      C315      -1
    x384      C341      -1
    x385      __OBJ___  418
    x385      C158      -1
    x385      C399      -1
    x390      __OBJ___  645
    x390      C389      -1
    x392      __OBJ___  331
    x392      C154      -1
    x392      C380      -1
    x394      __OBJ___  311
    x394      C35       -1
    x394      C205      -1
    x394      C281      -1
    x394      C380      -1
    x395      __OBJ___  726
    x395      C104      -1
    x395      C221      -1
    x395      C227      -1
    x395      C397      -1
    x399      __OBJ___  789
    x399      C11       -1
    x399      C21       -1
    x399      C191      -1
    MARKER    'MARKER'                 'INTEND'
RHS
    RHS       __OBJ___  -13030
    RHS       C0        -1
    RHS       C2        -1
    RHS       C3        -1
    RHS       C5        -1
    RHS       C6        -1
    RHS       C8        -1
    RHS       C9        -1
    RHS       C11       -1
    RHS       C12       -1
    RHS       C13       -1
    RHS       C14       -1
    RHS       C17       -1
    RHS       C21       -1
    RHS       C23       -1
    RHS       C24       -1
    RHS       C25       -1
    RHS       C26       -1
    RHS       C27       -1
    RHS       C29       -1
    RHS       C30       -1
    RHS       C33       -1
    RHS       C34       -1
    RHS       C35       -1
    RHS       C38       -1
    RHS       C39       -1
    RHS       C40       -1
    RHS       C41       -1
    RHS       C42       -1
    RHS       C46       -1
    RHS       C48       -1
    RHS       C49       -1
    RHS       C50       -1
    RHS       C52       -1
    RHS       C53       -1
    RHS       C54       -1
    RHS       C56       -1
    RHS       C58       -1
    RHS       C60       -1
    RHS       C62       -1
    RHS       C65       -1
    RHS       C68       -1
    RHS       C69       -1
    RHS       C70       -1
    RHS       C71       -1
    RHS       C74       -1
    RHS       C76       -1
    RHS       C77       -1
    RHS       C78       -1
    RHS       C79       -1
    RHS       C80       -1
    RHS       C81       -1
    RHS       C83       -1
    RHS       C86       -1
    RHS       C87       -1
    RHS       C89       -1
    RHS       C91       -1
    RHS       C92       -1
    RHS       C93       -1
    RHS       C95       -1
    RHS       C96       -1
    RHS       C101      -1
    RHS       C102      -1
    RHS       C104      -1
    RHS       C107      -1
    RHS       C110      -1
    RHS       C111      -1
    RHS       C115      -1
    RHS       C120      -1
    RHS       C124      -1
    RHS       C127      -1
    RHS       C129      -1
    RHS       C132      -1
    RHS       C135      -1
    RHS       C138      -1
    RHS       C140      -1
    RHS       C141      -1
    RHS       C143      -1
    RHS       C144      -1
    RHS       C145      -1
    RHS       C146      -1
    RHS       C150      -1
    RHS       C152      -1
    RHS       C154      -1
    RHS       C158      -1
    RHS       C159      -1
    RHS       C160      -1
    RHS       C161      -1
    RHS       C170      -1
    RHS       C175      -1
    RHS       C176      -1
    RHS       C178      -1
    RHS       C179      -1
    RHS       C180      -1
    RHS       C182      -1
    RHS       C183      -1
    RHS       C186      -1
    RHS       C187      -1
    RHS       C188      -1
    RHS       C191      -1
    RHS       C193      -1
    RHS       C194      -1
    RHS       C195      -1
    RHS       C198      -1
    RHS       C199      -1
    RHS       C200      -1
    RHS       C201      -1
    RHS       C202      -1
    RHS       C203      -1
    RHS       C205      -1
    RHS       C206      -1
    RHS       C207      -1
    RHS       C212      -1
    RHS       C213      -1
    RHS       C214      -1
    RHS       C215      -1
    RHS       C216      -1
    RHS       C218      -1
    RHS       C220      -1
    RHS       C221      -1
    RHS       C222      -1
    RHS       C224      -1
    RHS       C225      -1
    RHS       C226      -1
    RHS       C227      -1
    RHS       C234      -1
    RHS       C235      -1
    RHS       C237      -1
    RHS       C238      -1
    RHS       C240      -1
    RHS       C241      -1
    RHS       C244      -1
    RHS       C245      -1
    RHS       C248      -1
    RHS       C249      -1
    RHS       C250      -1
    RHS       C251      -1
    RHS       C255      -1
    RHS       C257      -1
    RHS       C263      -1
    RHS       C264      -1
    RHS       C267      -1
    RHS       C268      -1
    RHS       C269      -1
    RHS       C270      -1
    RHS       C271      -1
    RHS       C272      -1
    RHS       C273      -1
    RHS       C275      -1
    RHS       C277      -1
    RHS       C279      -1
    RHS       C281      -1
    RHS       C282      -1
    RHS       C283      -1
    RHS       C284      -1
    RHS       C285      -1
    RHS       C286      -1
    RHS       C289      -1
    RHS       C291      -1
    RHS       C292      -1
    RHS       C293      -1
    RHS       C294      -1
    RHS       C295      -1
    RHS       C299      -1
    RHS       C301      -1
    RHS       C303      -1
    RHS       C306      -1
    RHS       C307      -1
    RHS       C311      -1
    RHS       C315      -1
    RHS       C317      -1
    RHS       C319      -1
    RHS       C322      -1
    RHS       C323      -1
    RHS       C328      -1
    RHS       C329      -1
    RHS       C333      -1
    RHS       C338      -1
    RHS       C340      -1
    RHS       C341      -1
    RHS       C345      -1
    RHS       C347      -1
    RHS       C348      -1
    RHS       C352      -1
    RHS       C356      -1
    RHS       C357      -1
    RHS       C358      -1
    RHS       C359      -1
    RHS       C360      -1
    RHS       C361      -1
    RHS       C363      -1
    RHS       C366      -1
    RHS       C368      -1
    RHS       C369      -1
    RHS       C370      -1
    RHS       C371      -1
    RHS       C374      -1
    RHS       C377      -1
    RHS       C379      -1
    RHS       C380      -1
    RHS       C381      -1
    RHS       C385      -1
    RHS       C387      -1
    RHS       C389      -1
    RHS       C390      -1
    RHS       C391      -1
    RHS       C395      -1
    RHS       C397      -1
    RHS       C399      -1
BOUNDS
 UP BOUND     x2        1
 UP BOUND     x6        1
 UP BOUND     x7        1
 UP BOUND     x8        1
 UP BOUND     x9        1
 UP BOUND     x10       1
 UP BOUND     x12       1
 UP BOUND     x14       1
 UP BOUND     x19       1
 UP BOUND     x27       1
 UP BOUND     x29       1
 UP BOUND     x31       1
 UP BOUND     x34       1
 UP BOUND     x36       1
 UP BOUND     x38       1
 UP BOUND     x40       1
 UP BOUND     x42       1
 UP BOUND     x44       1
 UP BOUND     x45       1
 UP BOUND     x46       1
 UP BOUND     x47       1
 UP BOUND     x48       1
 UP BOUND     x51       1
 UP BOUND     x52       1
 UP BOUND     x54       1
 UP BOUND     x56       1
 UP BOUND     x58       1
 UP BOUND     x59       1
 UP BOUND     x60       1
 UP BOUND     x62       1
 UP BOUND     x63       1
 UP BOUND     x64       1
 UP BOUND     x68       1
 UP BOUND     x70       1
 UP BOUND     x71       1
 UP BOUND     x72       1
 UP BOUND     x73       1
 UP BOUND     x74       1
 UP BOUND     x77       1
 UP BOUND     x79       1
 UP BOUND     x80       1
 UP BOUND     x81       1
 UP BOUND     x83       1
 UP BOUND     x84       1
 UP BOUND     x85       1
 UP BOUND     x89       1
 UP BOUND     x91       1
 UP BOUND     x93       1
 UP BOUND     x95       1
 UP BOUND     x96       1
 UP BOUND     x99       1
 UP BOUND     x100      1
 UP BOUND     x101      1
 UP BOUND     x102      1
 UP BOUND     x103      1
 UP BOUND     x104      1
 UP BOUND     x115      1
 UP BOUND     x116      1
 UP BOUND     x117      1
 UP BOUND     x118      1
 UP BOUND     x119      1
 UP BOUND     x121      1
 UP BOUND     x124      1
 UP BOUND     x126      1
 UP BOUND     x128      1
 UP BOUND     x132      1
 UP BOUND     x133      1
 UP BOUND     x134      1
 UP BOUND     x142      1
 UP BOUND     x144      1
 UP BOUND     x145      1
 UP BOUND     x149      1
 UP BOUND     x151      1
 UP BOUND     x156      1
 UP BOUND     x158      1
 UP BOUND     x159      1
 UP BOUND     x160      1
 UP BOUND     x162      1
 UP BOUND     x164      1
 UP BOUND     x165      1
 UP BOUND     x169      1
 UP BOUND     x170      1
 UP BOUND     x171      1
 UP BOUND     x172      1
 UP BOUND     x174      1
 UP BOUND     x176      1
 UP BOUND     x178      1
 UP BOUND     x184      1
 UP BOUND     x186      1
 UP BOUND     x190      1
 UP BOUND     x192      1
 UP BOUND     x194      1
 UP BOUND     x195      1
 UP BOUND     x198      1
 UP BOUND     x199      1
 UP BOUND     x202      1
 UP BOUND     x205      1
 UP BOUND     x207      1
 UP BOUND     x209      1
 UP BOUND     x210      1
 UP BOUND     x217      1
 UP BOUND     x219      1
 UP BOUND     x220      1
 UP BOUND     x224      1
 UP BOUND     x235      1
 UP BOUND     x236      1
 UP BOUND     x237      1
 UP BOUND     x238      1
 UP BOUND     x239      1
 UP BOUND     x240      1
 UP BOUND     x241      1
 UP BOUND     x245      1
 UP BOUND     x246      1
 UP BOUND     x248      1
 UP BOUND     x250      1
 UP BOUND     x251      1
 UP BOUND     x253      1
 UP BOUND     x259      1
 UP BOUND     x261      1
 UP BOUND     x263      1
 UP BOUND     x264      1
 UP BOUND     x267      1
 UP BOUND     x269      1
 UP BOUND     x270      1
 UP BOUND     x272      1
 UP BOUND     x274      1
 UP BOUND     x275      1
 UP BOUND     x276      1
 UP BOUND     x279      1
 UP BOUND     x281      1
 UP BOUND     x282      1
 UP BOUND     x283      1
 UP BOUND     x285      1
 UP BOUND     x286      1
 UP BOUND     x289      1
 UP BOUND     x293      1
 UP BOUND     x295      1
 UP BOUND     x296      1
 UP BOUND     x297      1
 UP BOUND     x298      1
 UP BOUND     x299      1
 UP BOUND     x300      1
 UP BOUND     x303      1
 UP BOUND     x305      1
 UP BOUND     x307      1
 UP BOUND     x308      1
 UP BOUND     x309      1
 UP BOUND     x310      1
 UP BOUND     x311      1
 UP BOUND     x312      1
 UP BOUND     x314      1
 UP BOUND     x315      1
 UP BOUND     x316      1
 UP BOUND     x318      1
 UP BOUND     x319      1
 UP BOUND     x321      1
 UP BOUND     x323      1
 UP BOUND     x324      1
 UP BOUND     x325      1
 UP BOUND     x327      1
 UP BOUND     x328      1
 UP BOUND     x329      1
 UP BOUND     x330      1
 UP BOUND     x331      1
 UP BOUND     x333      1
 UP BOUND     x334      1
 UP BOUND     x335      1
 UP BOUND     x336      1
 UP BOUND     x337      1
 UP BOUND     x338      1
 UP BOUND     x339      1
 UP BOUND     x345      1
 UP BOUND     x346      1
 UP BOUND     x350      1
 UP BOUND     x354      1
 UP BOUND     x355      1
 UP BOUND     x356      1
 UP BOUND     x357      1
 UP BOUND     x358      1
 UP BOUND     x362      1
 UP BOUND     x363      1
 UP BOUND     x365      1
 UP BOUND     x373      1
 UP BOUND     x376      1
 UP BOUND     x377      1
 UP BOUND     x378      1
 UP BOUND     x381      1
 UP BOUND     x382      1
 UP BOUND     x383      1
 UP BOUND     x384      1
 UP BOUND     x385      1
 UP BOUND     x390      1
 UP BOUND     x392      1
 UP BOUND     x394      1
 UP BOUND     x395      1
 UP BOUND     x399      1
ENDATA
